3
22
42
40	31
1	3	13	6	11	4	18	3	
2	1	17	3	
3	3	14	8	14	7	16	2	
4	2	13	7	8	8	
5	1	26	3	
6	1	23	4	
7	1	31	2	
8	1	11	4	
9	1	7	9	
10	1	22	2	
11	3	30	3	7	10	10	7	
12	1	22	3	
13	3	11	5	4	8	8	16	
14	2	12	7	17	3	
15	1	6	14	
16	2	15	7	16	3	
17	3	10	5	19	3	12	8	
18	2	7	12	7	9	
19	3	13	3	6	8	7	12	
20	3	30	4	13	2	27	3	
21	1	13	3	
22	3	16	3	13	4	7	7	
